p edge 849 824
e 1 2
e 1 3
e 1 4
e 1 5
e 1 6
e 1 7
e 1 8
e 1 9
e 1 10
e 1 11
e 1 12
e 1 13
e 1 14
e 1 15
e 1 16
e 1 17
e 1 18
e 1 19
e 1 20
e 1 21
e 1 22
e 1 23
e 1 24
e 1 25
e 1 26
e 1 27
e 1 28
e 1 29
e 1 30
e 1 31
e 1 32
e 1 33
e 1 34
e 1 35
e 1 36
e 1 37
e 1 38
e 1 39
e 1 40
e 1 41
e 1 42
e 1 43
e 1 44
e 1 45
e 1 46
e 47 48
e 47 49
e 47 50
e 47 51
e 47 52
e 47 53
e 47 54
e 47 55
e 47 56
e 47 57
e 47 58
e 47 59
e 47 60
e 47 61
e 47 62
e 47 63
e 47 64
e 47 65
e 47 66
e 47 67
e 47 68
e 47 69
e 47 70
e 47 71
e 47 72
e 47 73
e 47 74
e 47 75
e 47 76
e 47 77
e 47 78
e 47 79
e 47 80
e 47 81
e 47 82
e 47 83
e 47 84
e 47 85
e 47 86
e 47 87
e 47 88
e 47 89
e 47 90
e 47 91
e 47 92
e 47 93
e 47 94
e 47 95
e 47 96
e 97 98
e 97 99
e 97 100
e 97 101
e 97 102
e 97 103
e 97 104
e 97 105
e 97 106
e 97 107
e 97 108
e 97 109
e 97 110
e 97 111
e 97 112
e 97 113
e 97 114
e 97 115
e 97 116
e 97 117
e 97 118
e 97 119
e 97 120
e 97 121
e 97 122
e 97 123
e 97 124
e 97 125
e 97 126
e 97 127
e 97 128
e 97 129
e 97 130
e 97 131
e 97 132
e 97 133
e 97 134
e 97 135
e 97 136
e 97 137
e 97 138
e 139 140
e 139 141
e 139 142
e 139 143
e 139 144
e 139 145
e 139 146
e 139 147
e 139 148
e 139 149
e 139 150
e 139 151
e 139 152
e 139 153
e 139 154
e 139 155
e 139 156
e 139 157
e 139 158
e 139 159
e 139 160
e 139 161
e 139 162
e 139 163
e 139 164
e 139 165
e 139 166
e 139 167
e 139 168
e 139 169
e 139 170
e 139 171
e 139 172
e 139 173
e 139 174
e 139 175
e 139 176
e 139 177
e 139 178
e 139 179
e 139 180
e 139 181
e 139 182
e 139 183
e 184 185
e 184 186
e 184 187
e 184 188
e 184 189
e 184 190
e 184 191
e 184 192
e 184 193
e 184 194
e 184 195
e 184 196
e 184 197
e 184 198
e 184 199
e 184 200
e 184 201
e 184 202
e 184 203
e 184 204
e 184 205
e 184 206
e 184 207
e 184 208
e 184 209
e 184 210
e 184 211
e 184 212
e 184 213
e 184 214
e 184 215
e 184 216
e 184 217
e 184 218
e 184 219
e 184 220
e 184 221
e 184 222
e 184 223
e 184 224
e 184 225
e 184 226
e 184 227
e 184 228
e 184 229
e 230 231
e 230 232
e 230 233
e 230 234
e 230 235
e 230 236
e 230 237
e 230 238
e 230 239
e 230 240
e 230 241
e 230 242
e 230 243
e 230 244
e 230 245
e 230 246
e 230 247
e 230 248
e 230 249
e 230 250
e 230 251
e 230 252
e 230 253
e 230 254
e 230 255
e 230 256
e 230 257
e 230 258
e 230 259
e 230 260
e 230 261
e 230 262
e 230 263
e 230 264
e 230 265
e 230 266
e 230 267
e 230 268
e 230 269
e 230 270
e 230 271
e 230 272
e 230 273
e 274 275
e 274 276
e 274 277
e 274 278
e 274 279
e 274 280
e 274 281
e 274 282
e 274 283
e 274 284
e 274 285
e 274 286
e 274 287
e 274 288
e 274 289
e 274 290
e 274 291
e 274 292
e 274 293
e 274 294
e 274 295
e 274 296
e 274 297
e 298 299
e 298 300
e 298 301
e 298 302
e 298 303
e 298 304
e 298 305
e 298 306
e 298 307
e 298 308
e 298 309
e 298 310
e 298 311
e 298 312
e 298 313
e 298 314
e 298 315
e 298 316
e 298 317
e 298 318
e 298 319
e 298 320
e 298 321
e 298 322
e 298 323
e 298 324
e 298 325
e 298 326
e 298 327
e 298 328
e 298 329
e 298 330
e 298 331
e 298 332
e 298 333
e 298 334
e 298 335
e 298 336
e 298 337
e 298 338
e 298 339
e 340 341
e 340 342
e 340 343
e 340 344
e 340 345
e 340 346
e 340 347
e 340 348
e 340 349
e 340 350
e 340 351
e 340 352
e 340 353
e 340 354
e 340 355
e 340 356
e 340 357
e 340 358
e 340 359
e 340 360
e 340 361
e 340 362
e 340 363
e 340 364
e 340 365
e 340 366
e 340 367
e 340 368
e 340 369
e 370 371
e 370 372
e 370 373
e 370 374
e 370 375
e 370 376
e 370 377
e 370 378
e 370 379
e 370 380
e 370 381
e 370 382
e 370 383
e 370 384
e 370 385
e 370 386
e 370 387
e 370 388
e 370 389
e 370 390
e 370 391
e 370 392
e 370 393
e 370 394
e 370 395
e 370 396
e 370 397
e 370 398
e 370 399
e 370 400
e 370 401
e 370 402
e 370 403
e 370 404
e 370 405
e 370 406
e 370 407
e 408 409
e 408 410
e 408 411
e 408 412
e 408 413
e 408 414
e 408 415
e 408 416
e 408 417
e 408 418
e 408 419
e 408 420
e 408 421
e 408 422
e 408 423
e 408 424
e 408 425
e 408 426
e 408 427
e 408 428
e 408 429
e 408 430
e 408 431
e 408 432
e 408 433
e 408 434
e 408 435
e 408 436
e 408 437
e 408 438
e 408 439
e 408 440
e 408 441
e 408 442
e 408 443
e 408 444
e 445 446
e 445 447
e 445 448
e 445 449
e 445 450
e 445 451
e 445 452
e 445 453
e 445 454
e 445 455
e 445 456
e 445 457
e 445 458
e 445 459
e 445 460
e 445 461
e 445 462
e 445 463
e 445 464
e 445 465
e 445 466
e 445 467
e 445 468
e 445 469
e 445 470
e 471 472
e 471 473
e 471 474
e 471 475
e 471 476
e 471 477
e 471 478
e 471 479
e 471 480
e 471 481
e 471 482
e 471 483
e 484 485
e 484 486
e 484 487
e 484 488
e 484 489
e 484 490
e 484 491
e 484 492
e 484 493
e 484 494
e 484 495
e 484 496
e 484 497
e 484 498
e 484 499
e 484 500
e 484 501
e 484 502
e 484 503
e 484 504
e 484 505
e 484 506
e 484 507
e 484 508
e 484 509
e 484 510
e 484 511
e 484 512
e 484 513
e 484 514
e 484 515
e 484 516
e 517 518
e 517 519
e 517 520
e 517 521
e 517 522
e 517 523
e 517 524
e 517 525
e 517 526
e 517 527
e 517 528
e 517 529
e 517 530
e 517 531
e 517 532
e 517 533
e 517 534
e 517 535
e 517 536
e 517 537
e 517 538
e 517 539
e 517 540
e 517 541
e 517 542
e 517 543
e 517 544
e 517 545
e 517 546
e 517 547
e 517 548
e 517 549
e 517 550
e 517 551
e 517 552
e 517 553
e 517 554
e 517 555
e 517 556
e 557 558
e 557 559
e 557 560
e 557 561
e 557 562
e 557 563
e 557 564
e 557 565
e 557 566
e 557 567
e 557 568
e 557 569
e 557 570
e 557 571
e 557 572
e 557 573
e 557 574
e 557 575
e 557 576
e 557 577
e 557 578
e 557 579
e 557 580
e 557 581
e 557 582
e 557 583
e 557 584
e 557 585
e 557 586
e 557 587
e 557 588
e 557 589
e 557 590
e 591 592
e 591 593
e 591 594
e 591 595
e 591 596
e 591 597
e 591 598
e 591 599
e 591 600
e 591 601
e 602 603
e 602 604
e 602 605
e 602 606
e 602 607
e 602 608
e 602 609
e 602 610
e 602 611
e 602 612
e 602 613
e 602 614
e 602 615
e 602 616
e 602 617
e 602 618
e 602 619
e 602 620
e 602 621
e 602 622
e 602 623
e 602 624
e 602 625
e 602 626
e 602 627
e 602 628
e 629 630
e 629 631
e 629 632
e 629 633
e 629 634
e 629 635
e 629 636
e 629 637
e 629 638
e 629 639
e 629 640
e 629 641
e 629 642
e 629 643
e 629 644
e 629 645
e 629 646
e 629 647
e 629 648
e 629 649
e 650 651
e 650 652
e 650 653
e 650 654
e 650 655
e 650 656
e 650 657
e 650 658
e 650 659
e 650 660
e 650 661
e 650 662
e 650 663
e 650 664
e 650 665
e 650 666
e 650 667
e 650 668
e 650 669
e 650 670
e 650 671
e 650 672
e 650 673
e 650 674
e 650 675
e 650 676
e 650 677
e 650 678
e 650 679
e 650 680
e 650 681
e 650 682
e 650 683
e 650 684
e 650 685
e 686 687
e 686 688
e 686 689
e 686 690
e 686 691
e 686 692
e 686 693
e 686 694
e 686 695
e 686 696
e 686 697
e 686 698
e 686 699
e 686 700
e 686 701
e 686 702
e 686 703
e 686 704
e 686 705
e 686 706
e 686 707
e 686 708
e 686 709
e 686 710
e 686 711
e 686 712
e 686 713
e 714 715
e 714 716
e 714 717
e 714 718
e 714 719
e 714 720
e 714 721
e 714 722
e 714 723
e 714 724
e 714 725
e 714 726
e 714 727
e 714 728
e 714 729
e 714 730
e 714 731
e 714 732
e 714 733
e 714 734
e 714 735
e 714 736
e 714 737
e 714 738
e 714 739
e 714 740
e 714 741
e 714 742
e 714 743
e 744 745
e 744 746
e 744 747
e 744 748
e 744 749
e 744 750
e 744 751
e 744 752
e 744 753
e 744 754
e 744 755
e 744 756
e 744 757
e 744 758
e 744 759
e 744 760
e 744 761
e 744 762
e 744 763
e 744 764
e 744 765
e 744 766
e 744 767
e 744 768
e 744 769
e 744 770
e 744 771
e 744 772
e 744 773
e 744 774
e 744 775
e 744 776
e 744 777
e 744 778
e 744 779
e 744 780
e 744 781
e 744 782
e 744 783
e 744 784
e 744 785
e 786 787
e 786 788
e 786 789
e 786 790
e 786 791
e 786 792
e 786 793
e 786 794
e 786 795
e 786 796
e 786 797
e 786 798
e 786 799
e 786 800
e 786 801
e 786 802
e 786 803
e 786 804
e 786 805
e 786 806
e 786 807
e 786 808
e 809 810
e 809 811
e 809 812
e 809 813
e 809 814
e 809 815
e 809 816
e 809 817
e 809 818
e 809 819
e 809 820
e 809 821
e 809 822
e 809 823
e 809 824
e 809 825
e 809 826
e 809 827
e 809 828
e 809 829
e 809 830
e 809 831
e 809 832
e 809 833
e 809 834
e 809 835
e 809 836
e 809 837
e 809 838
e 809 839
e 809 840
e 809 841
e 809 842
e 809 843
e 809 844
e 809 845
e 809 846
e 809 847
e 809 848
e 809 849
